;; produced by cvc4_16.drv ;;
(set-info :smt-lib-version 2.6)
(set-logic AUFBVFPDTNIRA)
(set-info :source |VC generated by SPARK 2014|)
(set-info :category industrial)
(set-info :status unknown)
;;; generated by SMT-LIB2 driver
;;; SMT-LIB2 driver: bit-vectors, common part
;;; SMT-LIB2: integer arithmetic
;;; SMT-LIB2: real arithmetic
(define-fun fp.isFinite32 ((x Float32)) Bool (not (or (fp.isInfinite x) (fp.isNaN x))))
(declare-datatypes ((tuple0 0)) (((Tuple0))))
(declare-sort us_private 0)

(declare-fun private__bool_eq (us_private us_private) Bool)

(declare-const us_null_ext__ us_private)

(declare-sort us_type_of_heap 0)

(declare-datatypes ((us_type_of_heap__ref 0))
(((mk___type_of_heap__ref (us_type_of_heap__content us_type_of_heap)))))
(declare-sort us_image 0)

(declare-datatypes ((int__ref 0)) (((mk_int__ref (int__content Int)))))
(declare-datatypes ((bool__ref 0)) (((mk_bool__ref (bool__content Bool)))))
(declare-datatypes ((real__ref 0)) (((mk_real__ref (real__content Real)))))
(declare-datatypes ((us_private__ref 0))
(((mk___private__ref (us_private__content us_private)))))
(define-fun int__ref___projection ((a int__ref)) Int (int__content a))

(define-fun bool__ref___projection ((a bool__ref)) Bool (bool__content a))

(define-fun real__ref___projection ((a real__ref)) Real (real__content a))

(define-fun us_private__ref___projection ((a us_private__ref)) us_private
  (us_private__content a))

(declare-fun pow2 (Int) Int)

(define-fun is_plus_infinity ((x Float32)) Bool (and (fp.isInfinite  x)
                                                (fp.isPositive  x)))

(define-fun is_minus_infinity ((x Float32)) Bool (and (fp.isInfinite  x)
                                                 (fp.isNegative  x)))

(define-fun is_plus_zero ((x Float32)) Bool (and (fp.isZero      x)
                                            (fp.isPositive  x)))

(define-fun is_minus_zero ((x Float32)) Bool (and (fp.isZero      x)
                                             (fp.isNegative  x)))

(declare-fun of_int (RoundingMode Int) Float32)

(declare-fun to_int1 (RoundingMode Float32) Int)

(declare-fun round (RoundingMode Real) Real)

(declare-const max_int Int)

(define-fun in_range ((x Real)) Bool (and
                                     (<= (- (* 33554430.0 10141204801825835211973625643008.0)) x)
                                     (<= x (* 33554430.0 10141204801825835211973625643008.0))))

(define-fun in_int_range ((i Int)) Bool (and (<= (- max_int) i)
                                        (<= i max_int)))

(define-fun no_overflow ((m RoundingMode) (x Real)) Bool (in_range
  (round m x)))

(define-fun in_safe_int_range ((i Int)) Bool (and (<= (- 16777216) i)
                                             (<= i 16777216)))

(define-fun same_sign ((x Float32)
  (y Float32)) Bool (or (and (fp.isPositive  x) (fp.isPositive  y))
                    (and (fp.isNegative  x) (fp.isNegative  y))))

(define-fun diff_sign ((x Float32)
  (y Float32)) Bool (or (and (fp.isPositive  x) (fp.isNegative  y))
                    (and (fp.isNegative  x) (fp.isPositive  y))))

(define-fun product_sign ((z Float32) (x Float32)
  (y Float32)) Bool (and (=> (same_sign x y) (fp.isPositive  z))
                    (=> (diff_sign x y) (fp.isNegative  z))))

(define-fun sqr ((x Real)) Real (* x x))

(declare-fun sqrt (Real) Real)

(define-fun same_sign_real ((x Float32)
  (r Real)) Bool (or (and (fp.isPositive  x) (< 0.0 r))
                 (and (fp.isNegative  x) (< r 0.0))))

(declare-fun is_int1 (Float32) Bool)

(declare-datatypes ((t__ref 0)) (((mk_t__ref (t__content Float32)))))
(define-fun to_int2 ((b Bool)) Int (ite (= b true) 1 0))

(define-fun of_int1 ((i Int)) Bool (ite (= i 0) false true))

(define-fun in_range1 ((x Int)) Bool (or (= x 0) (= x 1)))

(declare-fun attr__ATTRIBUTE_IMAGE (Bool) us_image)

(declare-fun attr__ATTRIBUTE_VALUE__pre_check (us_image) Bool)

(declare-fun attr__ATTRIBUTE_VALUE (us_image) Bool)

(declare-sort speed_t 0)

(declare-fun user_eq (speed_t speed_t) Bool)

(declare-fun attr__ATTRIBUTE_IMAGE1 (Float32) us_image)

(declare-fun attr__ATTRIBUTE_VALUE__pre_check1 (us_image) Bool)

(declare-fun attr__ATTRIBUTE_VALUE1 (us_image) Float32)

(declare-const dummy speed_t)

(declare-datatypes ((speed_t__ref 0))
(((mk_speed_t__ref (speed_t__content speed_t)))))
(define-fun speed_t__ref___projection ((a speed_t__ref)) speed_t (speed_t__content
                                                                 a))

(declare-fun to_rep (speed_t) Float32)

(declare-fun of_rep (Float32) speed_t)

;; inversion_axiom
  (assert
  (forall ((x speed_t)) (! (= (of_rep (to_rep x)) x) :pattern ((to_rep x)) )))

;; range_axiom
  (assert
  (forall ((x speed_t))
  (! (fp.isFinite32 (to_rep x)) :pattern ((to_rep x)) )))

;; coerce_axiom
  (assert
  (forall ((x Float32))
  (! (=> (fp.isFinite32 x) (= (to_rep (of_rep x)) x)) :pattern ((to_rep
                                                                (of_rep x))) )))

(declare-sort distance_t 0)

(define-fun in_range2 ((x Int)) Bool (and (<= 0 x) (<= x 2147483647)))

(declare-fun attr__ATTRIBUTE_IMAGE2 (Int) us_image)

(declare-fun attr__ATTRIBUTE_VALUE__pre_check2 (us_image) Bool)

(declare-fun attr__ATTRIBUTE_VALUE2 (us_image) Int)

(declare-fun user_eq1 (distance_t distance_t) Bool)

(declare-const dummy1 distance_t)

(declare-datatypes ((distance_t__ref 0))
(((mk_distance_t__ref (distance_t__content distance_t)))))
(define-fun distance_t__ref___projection ((a distance_t__ref)) distance_t
  (distance_t__content a))

(declare-fun to_rep1 (distance_t) Int)

(declare-fun of_rep1 (Int) distance_t)

;; inversion_axiom
  (assert
  (forall ((x distance_t))
  (! (= (of_rep1 (to_rep1 x)) x) :pattern ((to_rep1 x)) )))

;; range_axiom
  (assert
  (forall ((x distance_t)) (! (in_range2
  (to_rep1 x)) :pattern ((to_rep1 x)) )))

;; coerce_axiom
  (assert
  (forall ((x Int))
  (! (=> (in_range2 x) (= (to_rep1 (of_rep1 x)) x)) :pattern ((to_rep1
                                                              (of_rep1 x))) )))

(declare-datatypes ((us_split_fields 0))
(((mk___split_fields
  (rec__deceleration_curve__braking_curve_entry__location distance_t)(rec__deceleration_curve__braking_curve_entry__speed speed_t)))))
(define-fun us_split_fields_location__projection ((a us_split_fields)) distance_t
  (rec__deceleration_curve__braking_curve_entry__location a))

(declare-datatypes ((us_split_fields__ref 0))
(((mk___split_fields__ref (us_split_fields__content us_split_fields)))))
(define-fun us_split_fields__ref___3__projection ((a us_split_fields__ref)) us_split_fields
  (us_split_fields__content a))

(declare-datatypes ((us_rep 0))
(((mk___rep (us_split_fields1 us_split_fields)))))
(define-fun us_rep___3__projection ((a us_rep)) us_split_fields (us_split_fields1
                                                                a))

(define-fun bool_eq ((a us_rep)
  (b us_rep)) Bool (ite (and
                        (= (to_rep1
                           (rec__deceleration_curve__braking_curve_entry__location
                           (us_split_fields1 a))) (to_rep1
                                                  (rec__deceleration_curve__braking_curve_entry__location
                                                  (us_split_fields1 b))))
                        (= (to_rep
                           (rec__deceleration_curve__braking_curve_entry__speed
                           (us_split_fields1 a))) (to_rep
                                                  (rec__deceleration_curve__braking_curve_entry__speed
                                                  (us_split_fields1 b)))))
                   true false))

(declare-const value__size Int)

(declare-fun object__size (us_rep) Int)

(declare-const value__alignment Int)

(declare-fun object__alignment (us_rep) Int)

;; value__size_axiom
  (assert (<= 0 value__size))

;; object__size_axiom
  (assert (forall ((a us_rep)) (<= 0 (object__size a))))

;; value__alignment_axiom
  (assert (<= 0 value__alignment))

;; object__alignment_axiom
  (assert (forall ((a us_rep)) (<= 0 (object__alignment a))))

(declare-const deceleration_curve__braking_curve_entry__location__first__bit Int)

(declare-const deceleration_curve__braking_curve_entry__location__last__bit Int)

(declare-const deceleration_curve__braking_curve_entry__location__position Int)

;; deceleration_curve__braking_curve_entry__location__first__bit_axiom
  (assert
  (<= 0 deceleration_curve__braking_curve_entry__location__first__bit))

;; deceleration_curve__braking_curve_entry__location__last__bit_axiom
  (assert
  (< deceleration_curve__braking_curve_entry__location__first__bit deceleration_curve__braking_curve_entry__location__last__bit))

;; deceleration_curve__braking_curve_entry__location__position_axiom
  (assert (<= 0 deceleration_curve__braking_curve_entry__location__position))

(declare-const deceleration_curve__braking_curve_entry__speed__first__bit Int)

(declare-const deceleration_curve__braking_curve_entry__speed__last__bit Int)

(declare-const deceleration_curve__braking_curve_entry__speed__position Int)

;; deceleration_curve__braking_curve_entry__speed__first__bit_axiom
  (assert (<= 0 deceleration_curve__braking_curve_entry__speed__first__bit))

;; deceleration_curve__braking_curve_entry__speed__last__bit_axiom
  (assert
  (< deceleration_curve__braking_curve_entry__speed__first__bit deceleration_curve__braking_curve_entry__speed__last__bit))

;; deceleration_curve__braking_curve_entry__speed__position_axiom
  (assert (<= 0 deceleration_curve__braking_curve_entry__speed__position))

(declare-fun user_eq2 (us_rep us_rep) Bool)

(declare-const dummy2 us_rep)

(declare-datatypes ((braking_curve_entry__ref 0))
(((mk_braking_curve_entry__ref (braking_curve_entry__content us_rep)))))
(define-fun braking_curve_entry__ref___projection ((a braking_curve_entry__ref)) us_rep
  (braking_curve_entry__content a))

(declare-datatypes ((map__ref 0))
(((mk_map__ref (map__content (Array Int us_rep))))))
(declare-fun slide ((Array Int us_rep) Int Int) (Array Int us_rep))

;; slide_eq
  (assert
  (forall ((a (Array Int us_rep)))
  (forall ((first Int))
  (! (= (slide a first first) a) :pattern ((slide a first first)) ))))

;; slide_def
  (assert
  (forall ((a (Array Int us_rep)))
  (forall ((old_first Int))
  (forall ((new_first Int))
  (forall ((i Int))
  (! (= (select (slide a old_first new_first) i) (select a (- i (- new_first old_first)))) :pattern ((select
  (slide a old_first new_first) i)) ))))))

(declare-fun concat1 ((Array Int us_rep) Int Int (Array Int us_rep) Int
  Int) (Array Int us_rep))

;; concat_def
  (assert
  (forall ((a (Array Int us_rep)) (b (Array Int us_rep)))
  (forall ((a_first Int) (a_last Int) (b_first Int) (b_last Int))
  (forall ((i Int))
  (! (and
     (=> (and (<= a_first i) (<= i a_last))
     (= (select (concat1 a a_first a_last b b_first b_last) i) (select a i)))
     (=> (< a_last i)
     (= (select (concat1 a a_first a_last b b_first b_last) i) (select b (+ (- i a_last) (- b_first 1)))))) :pattern ((select
  (concat1 a a_first a_last b b_first b_last) i)) )))))

(declare-fun singleton1 (us_rep Int) (Array Int us_rep))

;; singleton_def
  (assert
  (forall ((v us_rep))
  (forall ((i Int))
  (! (= (select (singleton1 v i) i) v) :pattern ((select (singleton1 v i) i)) ))))

(define-fun bool_eq1 ((a (Array Int us_rep)) (a__first Int) (a__last Int)
  (b (Array Int us_rep)) (b__first Int)
  (b__last Int)) Bool (ite (and
                           (ite (<= a__first a__last)
                           (and (<= b__first b__last)
                           (= (- a__last a__first) (- b__last b__first)))
                           (< b__last b__first))
                           (forall ((temp___idx_148 Int))
                           (=>
                           (and (<= a__first temp___idx_148)
                           (<= temp___idx_148 a__last))
                           (= (bool_eq (select a temp___idx_148)
                              (select b (+ (- b__first a__first) temp___idx_148))) true))))
                      true false))

;; bool_eq_rev
  (assert
  (forall ((a (Array Int us_rep)) (b (Array Int us_rep)))
  (forall ((a__first Int) (a__last Int) (b__first Int) (b__last Int))
  (=> (= (bool_eq1 b b__first b__last a a__first a__last) true)
  (and
  (ite (<= a__first a__last)
  (and (<= b__first b__last) (= (- a__last a__first) (- b__last b__first)))
  (< b__last b__first))
  (forall ((temp___idx_148 Int))
  (=> (and (<= a__first temp___idx_148) (<= temp___idx_148 a__last))
  (= (bool_eq (select a temp___idx_148)
     (select b (+ (- b__first a__first) temp___idx_148))) true))))))))

(declare-const dummy3 (Array Int us_rep))

(declare-const value__size1 Int)

(declare-fun object__size1 ((Array Int us_rep)) Int)

(declare-const value__component__size Int)

(declare-fun object__component__size ((Array Int us_rep)) Int)

(declare-const value__alignment1 Int)

(declare-fun object__alignment1 ((Array Int us_rep)) Int)

;; value__size_axiom
  (assert (<= 0 value__size1))

;; object__size_axiom
  (assert (forall ((a (Array Int us_rep))) (<= 0 (object__size1 a))))

;; value__component__size_axiom
  (assert (<= 0 value__component__size))

;; object__component__size_axiom
  (assert
  (forall ((a (Array Int us_rep))) (<= 0 (object__component__size a))))

;; value__alignment_axiom
  (assert (<= 0 value__alignment1))

;; object__alignment_axiom
  (assert (forall ((a (Array Int us_rep))) (<= 0 (object__alignment1 a))))

(declare-fun user_eq3 ((Array Int us_rep) (Array Int us_rep)) Bool)

(declare-datatypes ((us_split_fields2 0))
(((mk___split_fields1
  (rec__deceleration_curve__braking_curve_t__curve (Array Int us_rep))(rec__deceleration_curve__braking_curve_t__end_point distance_t)))))
(define-fun us_split_fields_curve__projection ((a us_split_fields2)) (Array Int us_rep)
  (rec__deceleration_curve__braking_curve_t__curve a))

(define-fun us_split_fields_end_point__projection ((a us_split_fields2)) distance_t
  (rec__deceleration_curve__braking_curve_t__end_point a))

(declare-datatypes ((us_split_fields__ref1 0))
(((mk___split_fields__ref1 (us_split_fields__content1 us_split_fields2)))))
(define-fun us_split_fields__ref___4__projection ((a us_split_fields__ref1)) us_split_fields2
  (us_split_fields__content1 a))

(declare-datatypes ((us_rep1 0))
(((mk___rep1 (us_split_fields3 us_split_fields2)))))
(define-fun us_rep___4__projection ((a us_rep1)) us_split_fields2 (us_split_fields3
                                                                  a))

(define-fun bool_eq2 ((a us_rep1)
  (b us_rep1)) Bool (ite (and
                         (= (bool_eq1
                            (rec__deceleration_curve__braking_curve_t__curve
                            (us_split_fields3 a)) 0 1000
                            (rec__deceleration_curve__braking_curve_t__curve
                            (us_split_fields3 b)) 0 1000) true)
                         (= (to_rep1
                            (rec__deceleration_curve__braking_curve_t__end_point
                            (us_split_fields3 a))) (to_rep1
                                                   (rec__deceleration_curve__braking_curve_t__end_point
                                                   (us_split_fields3 b)))))
                    true false))

(declare-const value__size2 Int)

(declare-fun object__size2 (us_rep1) Int)

(declare-const value__alignment2 Int)

(declare-fun object__alignment2 (us_rep1) Int)

;; value__size_axiom
  (assert (<= 0 value__size2))

;; object__size_axiom
  (assert (forall ((a us_rep1)) (<= 0 (object__size2 a))))

;; value__alignment_axiom
  (assert (<= 0 value__alignment2))

;; object__alignment_axiom
  (assert (forall ((a us_rep1)) (<= 0 (object__alignment2 a))))

(declare-const deceleration_curve__braking_curve_t__curve__first__bit Int)

(declare-const deceleration_curve__braking_curve_t__curve__last__bit Int)

(declare-const deceleration_curve__braking_curve_t__curve__position Int)

;; deceleration_curve__braking_curve_t__curve__first__bit_axiom
  (assert (<= 0 deceleration_curve__braking_curve_t__curve__first__bit))

;; deceleration_curve__braking_curve_t__curve__last__bit_axiom
  (assert
  (< deceleration_curve__braking_curve_t__curve__first__bit deceleration_curve__braking_curve_t__curve__last__bit))

;; deceleration_curve__braking_curve_t__curve__position_axiom
  (assert (<= 0 deceleration_curve__braking_curve_t__curve__position))

(declare-const deceleration_curve__braking_curve_t__end_point__first__bit Int)

(declare-const deceleration_curve__braking_curve_t__end_point__last__bit Int)

(declare-const deceleration_curve__braking_curve_t__end_point__position Int)

;; deceleration_curve__braking_curve_t__end_point__first__bit_axiom
  (assert (<= 0 deceleration_curve__braking_curve_t__end_point__first__bit))

;; deceleration_curve__braking_curve_t__end_point__last__bit_axiom
  (assert
  (< deceleration_curve__braking_curve_t__end_point__first__bit deceleration_curve__braking_curve_t__end_point__last__bit))

;; deceleration_curve__braking_curve_t__end_point__position_axiom
  (assert (<= 0 deceleration_curve__braking_curve_t__end_point__position))

(declare-fun user_eq4 (us_rep1 us_rep1) Bool)

(declare-const dummy4 us_rep1)

(declare-datatypes ((braking_curve_t__ref 0))
(((mk_braking_curve_t__ref (braking_curve_t__content us_rep1)))))
(define-fun braking_curve_t__ref___projection ((a braking_curve_t__ref)) us_rep1
  (braking_curve_t__content a))

(declare-datatypes ((us_split_fields4 0))
(((mk___split_fields2
  (rec__deceleration_curve__target_t__supervise Bool)(rec__deceleration_curve__target_t__location distance_t)(rec__deceleration_curve__target_t__speed speed_t)))))
(define-fun us_split_fields_supervise__projection ((a us_split_fields4)) Bool
  (rec__deceleration_curve__target_t__supervise a))

(define-fun us_split_fields_location__2__projection ((a us_split_fields4)) distance_t
  (rec__deceleration_curve__target_t__location a))

(declare-datatypes ((us_split_fields__ref2 0))
(((mk___split_fields__ref2 (us_split_fields__content2 us_split_fields4)))))
(define-fun us_split_fields__ref___5__projection ((a us_split_fields__ref2)) us_split_fields4
  (us_split_fields__content2 a))

(declare-datatypes ((us_rep2 0))
(((mk___rep2 (us_split_fields5 us_split_fields4)))))
(define-fun us_rep___5__projection ((a us_rep2)) us_split_fields4 (us_split_fields5
                                                                  a))

(define-fun bool_eq3 ((a us_rep2)
  (b us_rep2)) Bool (ite (and
                         (and
                         (= (rec__deceleration_curve__target_t__supervise
                            (us_split_fields5 a)) (rec__deceleration_curve__target_t__supervise
                                                  (us_split_fields5 b)))
                         (= (to_rep1
                            (rec__deceleration_curve__target_t__location
                            (us_split_fields5 a))) (to_rep1
                                                   (rec__deceleration_curve__target_t__location
                                                   (us_split_fields5 b)))))
                         (= (to_rep
                            (rec__deceleration_curve__target_t__speed
                            (us_split_fields5 a))) (to_rep
                                                   (rec__deceleration_curve__target_t__speed
                                                   (us_split_fields5 b)))))
                    true false))

(declare-const value__size3 Int)

(declare-fun object__size3 (us_rep2) Int)

(declare-const value__alignment3 Int)

(declare-fun object__alignment3 (us_rep2) Int)

;; value__size_axiom
  (assert (<= 0 value__size3))

;; object__size_axiom
  (assert (forall ((a us_rep2)) (<= 0 (object__size3 a))))

;; value__alignment_axiom
  (assert (<= 0 value__alignment3))

;; object__alignment_axiom
  (assert (forall ((a us_rep2)) (<= 0 (object__alignment3 a))))

(declare-const deceleration_curve__target_t__supervise__first__bit Int)

(declare-const deceleration_curve__target_t__supervise__last__bit Int)

(declare-const deceleration_curve__target_t__supervise__position Int)

;; deceleration_curve__target_t__supervise__first__bit_axiom
  (assert (<= 0 deceleration_curve__target_t__supervise__first__bit))

;; deceleration_curve__target_t__supervise__last__bit_axiom
  (assert
  (< deceleration_curve__target_t__supervise__first__bit deceleration_curve__target_t__supervise__last__bit))

;; deceleration_curve__target_t__supervise__position_axiom
  (assert (<= 0 deceleration_curve__target_t__supervise__position))

(declare-const deceleration_curve__target_t__location__first__bit Int)

(declare-const deceleration_curve__target_t__location__last__bit Int)

(declare-const deceleration_curve__target_t__location__position Int)

;; deceleration_curve__target_t__location__first__bit_axiom
  (assert (<= 0 deceleration_curve__target_t__location__first__bit))

;; deceleration_curve__target_t__location__last__bit_axiom
  (assert
  (< deceleration_curve__target_t__location__first__bit deceleration_curve__target_t__location__last__bit))

;; deceleration_curve__target_t__location__position_axiom
  (assert (<= 0 deceleration_curve__target_t__location__position))

(declare-const deceleration_curve__target_t__speed__first__bit Int)

(declare-const deceleration_curve__target_t__speed__last__bit Int)

(declare-const deceleration_curve__target_t__speed__position Int)

;; deceleration_curve__target_t__speed__first__bit_axiom
  (assert (<= 0 deceleration_curve__target_t__speed__first__bit))

;; deceleration_curve__target_t__speed__last__bit_axiom
  (assert
  (< deceleration_curve__target_t__speed__first__bit deceleration_curve__target_t__speed__last__bit))

;; deceleration_curve__target_t__speed__position_axiom
  (assert (<= 0 deceleration_curve__target_t__speed__position))

(declare-fun user_eq5 (us_rep2 us_rep2) Bool)

(declare-const dummy5 us_rep2)

(declare-datatypes ((target_t__ref 0))
(((mk_target_t__ref (target_t__content us_rep2)))))
(define-fun target_t__ref___projection ((a target_t__ref)) us_rep2 (target_t__content
                                                                   a))

(declare-sort target_type 0)

(define-fun in_range3 ((x Int)) Bool (and (<= 0 x) (<= x 4)))

(declare-fun attr__ATTRIBUTE_IMAGE3 (Int) us_image)

(declare-fun attr__ATTRIBUTE_VALUE__pre_check3 (us_image) Bool)

(declare-fun attr__ATTRIBUTE_VALUE3 (us_image) Int)

(declare-fun user_eq6 (target_type target_type) Bool)

(declare-const dummy6 target_type)

(declare-datatypes ((target_type__ref 0))
(((mk_target_type__ref (target_type__content target_type)))))
(define-fun target_type__ref___projection ((a target_type__ref)) target_type
  (target_type__content a))

(declare-datatypes ((map__ref1 0))
(((mk_map__ref1 (map__content1 (Array Int us_rep2))))))
(declare-fun slide1 ((Array Int us_rep2) Int Int) (Array Int us_rep2))

;; slide_eq
  (assert
  (forall ((a (Array Int us_rep2)))
  (forall ((first Int))
  (! (= (slide1 a first first) a) :pattern ((slide1 a first first)) ))))

;; slide_def
  (assert
  (forall ((a (Array Int us_rep2)))
  (forall ((old_first Int))
  (forall ((new_first Int))
  (forall ((i Int))
  (! (= (select (slide1 a old_first new_first) i) (select a (- i (- new_first old_first)))) :pattern ((select
  (slide1 a old_first new_first) i)) ))))))

(declare-fun concat2 ((Array Int us_rep2) Int Int (Array Int us_rep2) Int
  Int) (Array Int us_rep2))

;; concat_def
  (assert
  (forall ((a (Array Int us_rep2)) (b (Array Int us_rep2)))
  (forall ((a_first Int) (a_last Int) (b_first Int) (b_last Int))
  (forall ((i Int))
  (! (and
     (=> (and (<= a_first i) (<= i a_last))
     (= (select (concat2 a a_first a_last b b_first b_last) i) (select a i)))
     (=> (< a_last i)
     (= (select (concat2 a a_first a_last b b_first b_last) i) (select b (+ (- i a_last) (- b_first 1)))))) :pattern ((select
  (concat2 a a_first a_last b b_first b_last) i)) )))))

(declare-fun singleton2 (us_rep2 Int) (Array Int us_rep2))

;; singleton_def
  (assert
  (forall ((v us_rep2))
  (forall ((i Int))
  (! (= (select (singleton2 v i) i) v) :pattern ((select (singleton2 v i) i)) ))))

(define-fun bool_eq4 ((a (Array Int us_rep2)) (a__first Int) (a__last Int)
  (b (Array Int us_rep2)) (b__first Int)
  (b__last Int)) Bool (ite (and
                           (ite (<= a__first a__last)
                           (and (<= b__first b__last)
                           (= (- a__last a__first) (- b__last b__first)))
                           (< b__last b__first))
                           (forall ((temp___idx_149 Int))
                           (=>
                           (and (<= a__first temp___idx_149)
                           (<= temp___idx_149 a__last))
                           (= (bool_eq3 (select a temp___idx_149)
                              (select b (+ (- b__first a__first) temp___idx_149))) true))))
                      true false))

;; bool_eq_rev
  (assert
  (forall ((a (Array Int us_rep2)) (b (Array Int us_rep2)))
  (forall ((a__first Int) (a__last Int) (b__first Int) (b__last Int))
  (=> (= (bool_eq4 b b__first b__last a a__first a__last) true)
  (and
  (ite (<= a__first a__last)
  (and (<= b__first b__last) (= (- a__last a__first) (- b__last b__first)))
  (< b__last b__first))
  (forall ((temp___idx_149 Int))
  (=> (and (<= a__first temp___idx_149) (<= temp___idx_149 a__last))
  (= (bool_eq3 (select a temp___idx_149)
     (select b (+ (- b__first a__first) temp___idx_149))) true))))))))

(declare-const attr__ATTRIBUTE_ADDRESS Int)

(declare-fun is_valid_target ((Array Int us_rep2)) Bool)

(declare-fun is_valid_target__function_guard (Bool (Array Int us_rep2)) Bool)

;; is_valid_target__post_axiom
  (assert true)

;; is_valid_target__def_axiom
  (assert
  (forall ((sec_3_13_8_targets_decel_curves__target (Array Int us_rep2)))
  (! (= (= (is_valid_target sec_3_13_8_targets_decel_curves__target) true)
     (and
     (and
     (=>
     (fp.lt (fp #b0 #b00000000 #b00000000000000000000000) (to_rep
                                                          (rec__deceleration_curve__target_t__speed
                                                          (us_split_fields5
                                                          (select sec_3_13_8_targets_decel_curves__target 2)))))
     (= (rec__deceleration_curve__target_t__supervise
        (us_split_fields5 (select sec_3_13_8_targets_decel_curves__target 1))) true))
     (=>
     (fp.eq (to_rep
            (rec__deceleration_curve__target_t__speed
            (us_split_fields5
            (select sec_3_13_8_targets_decel_curves__target 2)))) (fp #b0 #b00000000 #b00000000000000000000000))
     (and
     (= (rec__deceleration_curve__target_t__supervise
        (us_split_fields5 (select sec_3_13_8_targets_decel_curves__target 2))) true)
     (= (rec__deceleration_curve__target_t__supervise
        (us_split_fields5 (select sec_3_13_8_targets_decel_curves__target 3))) true))))
     (fp.eq (to_rep
            (rec__deceleration_curve__target_t__speed
            (us_split_fields5
            (select sec_3_13_8_targets_decel_curves__target 4)))) (fp #b0 #b00000000 #b00000000000000000000000)))) :pattern (
  (is_valid_target sec_3_13_8_targets_decel_curves__target)) )))

(declare-const attr__ATTRIBUTE_ADDRESS1 Int)

(define-fun dynamic_invariant ((temp___expr_355 Int)
  (temp___is_init_352 Bool) (temp___skip_constant_353 Bool)
  (temp___do_toplevel_354 Bool)) Bool (=>
                                      (or (= temp___is_init_352 true)
                                      (<= 0 4)) (in_range3 temp___expr_355)))

(define-fun dynamic_invariant1 ((temp___expr_153 Float32)
  (temp___is_init_150 Bool) (temp___skip_constant_151 Bool)
  (temp___do_toplevel_152 Bool)) Bool (=>
                                      (or (= temp___is_init_150 true)
                                      (fp.leq (fp.neg (fp #b0 #b11111110 #b11111111111111111111111)) (fp #b0 #b11111110 #b11111111111111111111111)))
                                      (fp.isFinite32 temp___expr_153)))

(define-fun dynamic_invariant2 ((temp___expr_177 Int)
  (temp___is_init_174 Bool) (temp___skip_constant_175 Bool)
  (temp___do_toplevel_176 Bool)) Bool (=>
                                      (or (= temp___is_init_174 true)
                                      (<= 0 2147483647)) (in_range2
                                      temp___expr_177)))

(declare-const target (Array Int us_rep2))

;; H
  (assert
  (and (= (is_valid_target target) true)
  (fp.eq (to_rep
         (rec__deceleration_curve__target_t__speed
         (us_split_fields5 (select target 3)))) (fp #b0 #b00000000 #b00000000000000000000000))))

(assert
;; WP_parameter_def
 ;; File "sec_3_13_8_targets_decel_curves.ads", line 48, characters 0-0
  (not
  (<= (to_rep1
      (rec__deceleration_curve__target_t__location
      (us_split_fields5 (select target 3)))) 5000)))
(check-sat)
(exit)
